treewidth/data/FibonacciTree_10.gr
p tw 143 142
1 2
2 56
56 67
56 78
78 100
78 111
89 100
111 3
111 25
122 133
133 3
3 14
25 53
25 57
36 47
47 51
51 52
51 53
53 55
54 55
57 65
57 71
58 59
59 60
60 61
60 62
62 64
62 65
63 64
65 69
66 68
68 69
69 70
71 85
71 94
72 73
73 74
74 75
74 76
76 79
76 80
77 79
80 83
80 85
81 82
82 83
83 84
85 91
86 87
87 88
88 90
88 91
91 93
92 93
94 117
94 131
95 96
96 97
97 98
97 99
99 102
99 103
101 102
103 106
103 108
104 105
105 106
106 107
108 114
108 117
109 110
110 112
112 113
112 114
114 116
115 116
117 126
118 119
119 120
120 121
120 123
123 125
123 126
124 125
126 129
127 128
128 129
129 130
131 28
132 134
134 135
135 136
135 137
137 139
137 140
138 139
140 143
140 5
141 142
142 143
143 4
5 10
5 13
6 7
7 8
8 9
8 10
10 12
11 12
13 22
13 28
15 16
16 17
17 18
17 19
19 21
19 22
20 21
22 26
23 24
24 26
26 27
28 42
29 30
30 31
31 32
31 33
33 35
33 37
34 35
37 40
37 42
38 39
39 40
40 41
42 48
43 44
44 45
45 46
45 48
48 50
49 50
