treewidth/data/FibonacciTree_10.td
c width = 1, time = 0.000671
s td 143 2 143
b 1 94
b 2 94 71
b 3 71 57
b 4 57 25
b 5 25 53
b 6 53 51
b 7 51 47
b 8 47 36
b 9 51 52
b 10 53 55
b 11 55 54
b 12 25 111
b 13 111 3
b 14 3 14
b 15 3 133
b 16 133 122
b 17 111 78
b 18 78 56
b 19 56 2
b 20 2 1
b 21 56 67
b 22 78 100
b 23 100 89
b 24 57 65
b 25 65 62
b 26 62 60
b 27 60 59
b 28 59 58
b 29 60 61
b 30 62 64
b 31 64 63
b 32 65 69
b 33 69 68
b 34 68 66
b 35 69 70
b 36 71 85
b 37 85 80
b 38 80 76
b 39 76 74
b 40 74 73
b 41 73 72
b 42 74 75
b 43 76 79
b 44 79 77
b 45 80 83
b 46 83 82
b 47 82 81
b 48 83 84
b 49 85 91
b 50 91 88
b 51 88 87
b 52 87 86
b 53 88 90
b 54 91 93
b 55 93 92
b 56 94 117
b 57 117 108
b 58 108 103
b 59 103 99
b 60 99 97
b 61 97 96
b 62 96 95
b 63 97 98
b 64 99 102
b 65 102 101
b 66 103 106
b 67 106 105
b 68 105 104
b 69 106 107
b 70 108 114
b 71 114 112
b 72 112 110
b 73 110 109
b 74 112 113
b 75 114 116
b 76 116 115
b 77 117 126
b 78 126 123
b 79 123 120
b 80 120 119
b 81 119 118
b 82 120 121
b 83 123 125
b 84 125 124
b 85 126 129
b 86 129 128
b 87 128 127
b 88 129 130
b 89 94 131
b 90 131 28
b 91 28 13
b 92 13 5
b 93 5 10
b 94 10 8
b 95 8 7
b 96 7 6
b 97 8 9
b 98 10 12
b 99 12 11
b 100 5 140
b 101 140 137
b 102 137 135
b 103 135 134
b 104 134 132
b 105 135 136
b 106 137 139
b 107 139 138
b 108 140 143
b 109 143 4
b 110 143 142
b 111 142 141
b 112 13 22
b 113 22 19
b 114 19 17
b 115 17 16
b 116 16 15
b 117 17 18
b 118 19 21
b 119 21 20
b 120 22 26
b 121 26 24
b 122 24 23
b 123 26 27
b 124 28 42
b 125 42 37
b 126 37 33
b 127 33 31
b 128 31 30
b 129 30 29
b 130 31 32
b 131 33 35
b 132 35 34
b 133 37 40
b 134 40 39
b 135 39 38
b 136 40 41
b 137 42 48
b 138 48 45
b 139 45 44
b 140 44 43
b 141 45 46
b 142 48 50
b 143 50 49
1 2
2 3
3 4
4 5
5 6
6 7
7 8
6 9
5 10
10 11
4 12
12 13
13 14
13 15
15 16
12 17
17 18
18 19
19 20
18 21
17 22
22 23
3 24
24 25
25 26
26 27
27 28
26 29
25 30
30 31
24 32
32 33
33 34
32 35
2 36
36 37
37 38
38 39
39 40
40 41
39 42
38 43
43 44
37 45
45 46
46 47
45 48
36 49
49 50
50 51
51 52
50 53
49 54
54 55
1 56
56 57
57 58
58 59
59 60
60 61
61 62
60 63
59 64
64 65
58 66
66 67
67 68
66 69
57 70
70 71
71 72
72 73
71 74
70 75
75 76
56 77
77 78
78 79
79 80
80 81
79 82
78 83
83 84
77 85
85 86
86 87
85 88
1 89
89 90
90 91
91 92
92 93
93 94
94 95
95 96
94 97
93 98
98 99
92 100
100 101
101 102
102 103
103 104
102 105
101 106
106 107
100 108
108 109
108 110
110 111
91 112
112 113
113 114
114 115
115 116
114 117
113 118
118 119
112 120
120 121
121 122
120 123
90 124
124 125
125 126
126 127
127 128
128 129
127 130
126 131
131 132
125 133
133 134
134 135
133 136
124 137
137 138
138 139
139 140
138 141
137 142
142 143
